CMD:
./solvers/bin/cadical --plain --no-reduce -t 1600 ./data/cnfs//shift_register_top_w64_d8_e0/shift_register_top_w64_d8_e0.74.cnf

c --- [ banner ] -------------------------------------------------------------
c 
c CaDiCaL SAT Solver
c Copyright (c) 2016-2024
c A. Biere, M. Fleury, N. Froleyks, K. Fazekas, F. Pollitt, T. Faller
c JKU Linz, University of Freiburg, TU Wien
c 
c Version 2.1.3 5296d3d2a9bf48c154ab2acb5e44625776d821bf
c g++ (Gentoo 12.3.1_p20230526 p2) 12.3.1 20230526 -Wall -Wextra -O3 -DNDEBUG
c Sat Aug 9 07:26:21 PDT 2025 Linux cedar2.int.cedar.computecanada.ca 5.14.0-362.24.2.el9_3.x86_64 x86_64
c 
c --- [ limit ] --------------------------------------------------------------
c 
c setting time limit to 1600 seconds real time (due to '-t 1600')
c 
c --- [ parsing input ] ------------------------------------------------------
c 
c reading DIMACS file from './data/cnfs//shift_register_top_w64_d8_e0/shift_register_top_w64_d8_e0.74.cnf'
c opening file to read './data/cnfs//shift_register_top_w64_d8_e0/shift_register_top_w64_d8_e0.74.cnf'
c found 'p cnf 350613 1020301' header
c parsed 1020301 clauses in 0.17 seconds process time
c 
c --- [ options ] ------------------------------------------------------------
c 
c   --compact=false                (different from default 'true')
c   --decompose=false              (different from default 'true')
c   --deduplicate=false            (different from default 'true')
c   --elim=false                   (different from default 'true')
c   --probe=false                  (different from default 'true')
c   --reduce=false                 (different from default 'true')
c   --subsume=false                (different from default 'true')
c   --ternary=false                (different from default 'true')
c   --transred=false               (different from default 'true')
c   --vivify=false                 (different from default 'true')
c 
c --- [ solving ] ------------------------------------------------------------
c 
c time measured in process time since initialization
c 
c  seconds   reductions  redundant   irredundant
c          MB    restarts       trail        variables
c           level   conflicts       glue           remaining
c 
c *  0.17 164  0 0   0    0    0  0% 0 1010336 340703 97%
c {  0.27 169  0 0   0    0    0  0% 0 1010336 340703 97%
c i  0.29 169 9631 0   0    9    8 97% 1 1010336 340190 97%
c i  0.36 169 6735 0   9  136   72 82% 2 1010336 339677 97%
c i  0.36 169 4729 0  12  169   99 68% 2 1010336 339586 97%
c }  0.86 170 3135 0  60  356  275 53% 3 1010336 339586 97%
c 1  0.86 170 3135 0  60  356  275 53% 3 1010336 339586 97%
c 
c --- [ result ] -------------------------------------------------------------
c 
s SATISFIABLE
v 1 -2 -3 -4 -5 -6 -7 -8 -9 -10 -11 -12 -13 -14 -15 -16 -17 -18 -19 -20 -21
v -22 -23 -24 -25 -26 -27 -28 -29 -30 -31 -32 -33 -34 -35 -36 -37 -38 -39 -40
v -41 -42 -43 -44 -45 -46 -47 -48 -49 -50 -51 -52 -53 -54 -55 -56 -57 -58 -59
v -60 -61 -62 -63 -64 -65 -66 -67 -68 -69 -70 -71 -72 -73 -74 -75 -76 -77 -78
v -79 -80 -81 -82 -83 -84 -85 -86 -87 -88 -89 -90 -91 -92 -93 -94 -95 -96 -97
v -98 -99 -100 -101 -102 -103 -104 -105 -106 -107 -108 -109 -110 -111 -112
v -113 -114 -115 -116 -117 -118 -119 -120 -121 -122 -123 -124 -125 -126 -127
v -128 -129 130 131 132 133 134 -135 -136 -137 -138 -139 -140 -141 -142 -143
v -144 -145 -146 -147 -148 -149 -150 -151 -152 -153 -154 -155 -156 -157 -158
v -159 -160 -161 -162 -163 -164 -165 -166 -167 -168 -169 -170 -171 -172 -173
v -174 -175 -176 -177 -178 -179 -180 -181 -182 -183 -184 -185 -186 -187 -188
v -189 -190 -191 -192 -193 -194 -195 -196 -197 -198 -199 -200 -201 -202 -203
v -204 -205 -206 -207 -208 -209 -210 -211 -212 -213 -214 -215 -216 -217 -218
v -219 -220 -221 -222 -223 -224 -225 -226 -227 -228 -229 -230 -231 -232 -233
v -234 -235 -236 -237 -238 -239 -240 -241 -242 -243 -244 -245 -246 -247 -248
v -249 -250 -251 -252 -253 -254 -255 -256 -257 -258 -259 -260 -261 -262 -263
v -264 -265 -266 -267 -268 -269 -270 -271 -272 -273 -274 -275 -276 -277 -278
v -279 -280 -281 -282 -283 -284 -285 -286 -287 -288 -289 -290 -291 -292 -293
v -294 -295 -296 -297 -298 -299 -300 -301 -302 -303 -304 -305 -306 -307 -308
v -309 -310 -311 -312 -313 -314 -315 -316 -317 -318 -319 -320 -321 -322 -323
v -324 -325 -326 327 328 329 330 331 332 333 334 335 336 337 338 339 340 341
v 342 343 344 345 346 347 348 349 350 351 352 353 354 355 356 357 358 359 360
v 361 362 363 364 365 366 367 368 369 370 371 372 373 374 375 376 377 378 379
v 380 381 382 383 384 385 386 387 388 389 390 -391 -392 -393 -394 -395 -396
v -397 -398 -399 -400 -401 -402 -403 -404 -405 -406 -407 -408 -409 -410 -411
v -412 -413 -414 -415 -416 -417 -418 -419 -420 -421 -422 -423 -424 -425 -426
v -427 -428 -429 -430 -431 -432 -433 -434 -435 -436 -437 -438 -439 -440 -441
v -442 -443 -444 -445 -446 -447 -448 -449 -450 -451 -452 -453 -454 -455 -456
v 457 458 459 -460 -461 -462 -463 -464 -465 -466 -467 -468 -469 -470 -471 -472
v -473 -474 -475 -476 -477 -478 -479 -480 -481 -482 -483 -484 -485 -486 -487
v -488 -489 -490 -491 -492 -493 -494 -495 -496 -497 -498 -499 -500 -501 -502
v -503 -504 -505 -506 -507 -508 -509 -510 -511 -512 -513 -514 -515 -516 -517
v -518 -519 -520 -521 -522 -523 -524 -525 -526 -527 -528 -529 -530 -531 -532
v -533 -534 -535 -536 -537 -538 -539 -540 -541 -542 -543 -544 -545 -546 -547
v -548 -549 -550 -551 -552 -553 -554 -555 -556 -557 -558 -559 -560 -561 -562
v -563 -564 -565 -566 -567 -568 -569 -570 -571 -572 -573 -574 -575 -576 -577
v -578 -579 -580 -581 -582 -583 -584 -585 -586 -587 -588 -589 -590 591 -592
v -593 -594 -595 -596 -597 -598 -599 -600 -601 -602 -603 -604 -605 -606 -607
v -608 -609 -610 -611 -612 -613 -614 -615 -616 -617 -618 -619 -620 -621 -622
v -623 -624 -625 -626 -627 -628 -629 -630 -631 -632 -633 -634 -635 -636 -637
v -638 -639 -640 -641 -642 -643 -644 -645 -646 -647 -648 -649 -650 -651 -652
v -653 -654 -655 -656 657 658 -659 -660 -661 -662 -663 -664 -665 -666 -667
v -668 -669 -670 -671 -672 -673 -674 -675 -676 -677 -678 -679 -680 -681 -682
... skipped 34444 lines ...
v 350067 -350068 -350069 350070 -350071 350072 350073 -350074 350075 -350076
v -350077 350078 -350079 350080 350081 -350082 350083 -350084 -350085 350086
v -350087 350088 350089 -350090 350091 -350092 -350093 350094 -350095 350096
v 350097 -350098 350099 -350100 -350101 350102 -350103 350104 350105 -350106
v 350107 -350108 -350109 350110 -350111 350112 350113 -350114 350115 -350116
v -350117 350118 -350119 350120 350121 -350122 350123 -350124 -350125 350126
v -350127 350128 350129 -350130 350131 -350132 -350133 350134 -350135 350136
v 350137 -350138 350139 -350140 -350141 350142 -350143 350144 350145 -350146
v 350147 -350148 -350149 350150 -350151 350152 350153 -350154 350155 -350156
v -350157 350158 -350159 350160 350161 -350162 350163 -350164 -350165 350166
v -350167 350168 350169 -350170 350171 -350172 -350173 350174 -350175 350176
v 350177 -350178 350179 -350180 -350181 350182 -350183 350184 350185 -350186
v 350187 -350188 -350189 350190 -350191 350192 350193 -350194 350195 -350196
v -350197 350198 -350199 350200 350201 -350202 350203 -350204 -350205 350206
v -350207 350208 350209 -350210 350211 -350212 -350213 350214 -350215 350216
v 350217 -350218 350219 -350220 -350221 350222 -350223 350224 350225 -350226
v 350227 -350228 -350229 350230 -350231 350232 350233 -350234 350235 -350236
v -350237 350238 -350239 350240 350241 -350242 350243 -350244 -350245 350246
v -350247 350248 350249 -350250 350251 -350252 -350253 350254 -350255 350256
v 350257 -350258 350259 -350260 -350261 350262 -350263 350264 350265 -350266
v 350267 -350268 -350269 350270 -350271 350272 350273 -350274 350275 -350276
v -350277 350278 -350279 350280 350281 -350282 350283 -350284 -350285 350286
v -350287 350288 350289 -350290 350291 -350292 -350293 350294 -350295 350296
v 350297 -350298 350299 -350300 -350301 350302 -350303 350304 350305 -350306
v 350307 -350308 -350309 350310 -350311 350312 350313 -350314 350315 -350316
v -350317 350318 -350319 350320 350321 -350322 350323 -350324 -350325 350326
v -350327 350328 350329 -350330 350331 -350332 -350333 350334 -350335 350336
v 350337 -350338 350339 -350340 -350341 350342 -350343 350344 350345 -350346
v 350347 -350348 -350349 350350 -350351 350352 350353 -350354 350355 -350356
v 350357 -350358 -350359 350360 -350361 350362 -350363 350364 -350365 350366
v -350367 350368 -350369 350370 -350371 350372 -350373 350374 -350375 350376
v -350377 350378 -350379 350380 -350381 350382 -350383 350384 -350385 350386
v -350387 350388 -350389 350390 -350391 350392 -350393 350394 -350395 350396
v -350397 350398 -350399 350400 -350401 350402 -350403 350404 -350405 350406
v -350407 350408 -350409 350410 -350411 350412 -350413 350414 -350415 350416
v -350417 350418 -350419 350420 -350421 350422 -350423 350424 -350425 350426
v -350427 350428 -350429 350430 -350431 350432 -350433 350434 -350435 350436
v -350437 350438 -350439 350440 -350441 350442 -350443 350444 -350445 350446
v -350447 350448 -350449 350450 -350451 350452 -350453 350454 -350455 350456
v -350457 350458 -350459 350460 -350461 350462 -350463 350464 -350465 350466
v -350467 350468 -350469 350470 -350471 350472 -350473 350474 -350475 350476
v -350477 350478 -350479 350480 -350481 350482 -350483 350484 -350485 350486
v -350487 350488 -350489 350490 -350491 350492 -350493 350494 -350495 350496
v -350497 350498 -350499 350500 -350501 350502 -350503 350504 -350505 350506
v -350507 350508 -350509 350510 -350511 350512 -350513 350514 -350515 350516
v -350517 350518 -350519 350520 -350521 350522 -350523 350524 -350525 350526
v -350527 350528 -350529 350530 -350531 350532 -350533 350534 -350535 350536
v -350537 350538 -350539 350540 -350541 350542 -350543 350544 -350545 350546
v -350547 350548 -350549 350550 -350551 350552 -350553 350554 -350555 350556
v -350557 350558 -350559 350560 -350561 350562 -350563 350564 -350565 350566
v -350567 350568 -350569 350570 -350571 350572 -350573 350574 -350575 350576
v -350577 350578 -350579 350580 -350581 350582 -350583 350584 -350585 350586
v -350587 350588 -350589 350590 -350591 350592 -350593 350594 -350595 350596
v -350597 350598 -350599 350600 -350601 350602 -350603 350604 -350605 350606
v -350607 350608 -350609 350610 -350611 350612 -350613 0
c 
c --- [ run-time profiling ] -------------------------------------------------
c 
c process time taken by individual solving procedures
c (percentage relative to process time for solving)
c 
c         0.70   99.98% search
c         0.59   85.31% unstable
c         0.17   23.77% parse
c         0.10   14.66% lucky
c         0.00    0.00% simplify
c   =================================
c         0.70   79.25% solve
c 
c last line shows process time for solving
c (percentage relative to total process time)
c 
c --- [ statistics ] ---------------------------------------------------------
c 
c chronological:               102        28.65 %  of conflicts
c conflicts:                   356       510.54    per second
c decisions:                187518    268920.51    per second
c fixed:                     11026         3.14 %  of all variables
c learned:                     284        79.78 %  per conflict
c learned_lits:               2806       100.00 %  learned literals
c minimized:                     0         0.00 %  learned literals
c shrunken:                    172         6.13 %  learned literals
c minishrunken:                423        15.07 %  learned literals
c otfs:                          1         0.28 %  of conflict
c propagations:            9661030        13.85 M  per second
c restarts:                     60         5.93    interval
c subsumed:                      6         0.00 %  of all clauses
c strengthened:                  1         0.00 %  of all clauses
c 
c seconds are measured in process time for solving
c 
c --- [ resources ] ----------------------------------------------------------
c 
c total process time since initialization:         0.88    seconds
c total real time since initialization:            0.89    seconds
c maximum resident set size of process:          169.38    MB
c 
c --- [ shutting down ] ------------------------------------------------------
c 
c exit 10
